
Starting CP-SAT solver v9.14.6206
Parameters: max_time_in_seconds: 600 log_search_progress: true relative_gap_limit: 0
Setting number of workers to 20

Initial optimization model '': (model_fingerprint: 0xd8992f81819adbd5)
#Variables: 703 (#ints: 1 in objective) (507 primary variables)
  - 160 in [0,18672]
  - 32 in [0,93360]
  - 1 in [0,597504]
  - 1 in [0,3585024]
  - 2 in [0,4182528]
  - 86 in [1440,18672]
  - 420 in [2880,18672]
  - 1 constants in {0} 
#kInterval: 257 (#fixed: 4)
#kLinMax: 96 (#expressions: 192)
#kLinear1: 33
#kLinear2: 317
#kLinear3: 2
#kLinearN: 2 (#terms: 98)
#kNoOverlap: 10 (#intervals: 257, #fixed_intervals: 4)

Starting presolve at 0.00s
  9.81e-05s  0.00e+00d  [DetectDominanceRelations] 
  3.16e-03s  0.00e+00d  [operations_research::sat::CpModelPresolver::PresolveToFixPoint] #num_loops=10 #num_dual_strengthening=1 
  5.30e-06s  0.00e+00d  [operations_research::sat::CpModelPresolver::ExtractEncodingFromLinear] 
  2.50e-05s  0.00e+00d  [operations_research::sat::CpModelPresolver::DetectDuplicateColumns] 
  1.40e-04s  0.00e+00d  [operations_research::sat::CpModelPresolver::DetectDuplicateConstraints] 
[Symmetry] Graph for symmetry has 1'628 nodes and 1'574 arcs.
[Symmetry] Symmetry computation done. time: 0.0001398 dtime: 0.00024151
  1.50e-04s  0.00e+00d  [operations_research::sat::CpModelPresolver::DetectDuplicateConstraintsWithDifferentEnforcements] 
  1.05e-03s  7.40e-06d  [operations_research::sat::CpModelPresolver::Probe] #new_bounds=30 
  5.60e-06s  0.00e+00d  [MaxClique] 
  1.21e-04s  0.00e+00d  [DetectDominanceRelations] 
  9.09e-04s  0.00e+00d  [operations_research::sat::CpModelPresolver::PresolveToFixPoint] #num_loops=2 #num_dual_strengthening=1 
  6.46e-05s  0.00e+00d  [operations_research::sat::CpModelPresolver::ProcessAtMostOneAndLinear] 
  1.15e-04s  0.00e+00d  [operations_research::sat::CpModelPresolver::DetectDuplicateConstraints] 
  1.03e-04s  0.00e+00d  [operations_research::sat::CpModelPresolver::DetectDuplicateConstraintsWithDifferentEnforcements] 
  7.06e-05s  1.88e-06d  [operations_research::sat::CpModelPresolver::DetectDominatedLinearConstraints] #relevant_constraints=313 
  5.29e-05s  0.00e+00d  [operations_research::sat::CpModelPresolver::DetectDifferentVariables] 
  5.20e-06s  0.00e+00d  [operations_research::sat::CpModelPresolver::ProcessSetPPC] 
  7.00e-06s  0.00e+00d  [operations_research::sat::CpModelPresolver::FindAlmostIdenticalLinearConstraints] 
  1.85e-05s  0.00e+00d  [operations_research::sat::CpModelPresolver::FindBigAtMostOneAndLinearOverlap] 
  4.38e-05s  1.11e-05d  [operations_research::sat::CpModelPresolver::FindBigVerticalLinearOverlap] 
  5.20e-06s  0.00e+00d  [operations_research::sat::CpModelPresolver::FindBigHorizontalLinearOverlap] 
  9.10e-06s  0.00e+00d  [operations_research::sat::CpModelPresolver::MergeClauses] 
  1.07e-04s  0.00e+00d  [DetectDominanceRelations] 
  5.63e-04s  0.00e+00d  [operations_research::sat::CpModelPresolver::PresolveToFixPoint] #num_loops=1 #num_dual_strengthening=1 
  1.01e-04s  0.00e+00d  [DetectDominanceRelations] 
  5.38e-04s  0.00e+00d  [operations_research::sat::CpModelPresolver::PresolveToFixPoint] #num_loops=1 #num_dual_strengthening=1 
  2.84e-05s  0.00e+00d  [operations_research::sat::CpModelPresolver::DetectDuplicateColumns] 
  1.07e-04s  0.00e+00d  [operations_research::sat::CpModelPresolver::DetectDuplicateConstraints] 
[Symmetry] Graph for symmetry has 1'532 nodes and 1'385 arcs.
[Symmetry] Symmetry computation done. time: 0.0001322 dtime: 0.00022764
  1.18e-04s  0.00e+00d  [operations_research::sat::CpModelPresolver::DetectDuplicateConstraintsWithDifferentEnforcements] 
  9.04e-04s  2.36e-06d  [operations_research::sat::CpModelPresolver::Probe] 
  6.10e-06s  0.00e+00d  [MaxClique] 
  1.17e-04s  0.00e+00d  [DetectDominanceRelations] 
  6.10e-04s  0.00e+00d  [operations_research::sat::CpModelPresolver::PresolveToFixPoint] #num_loops=1 #num_dual_strengthening=1 
  6.18e-05s  0.00e+00d  [operations_research::sat::CpModelPresolver::ProcessAtMostOneAndLinear] 
  1.02e-04s  0.00e+00d  [operations_research::sat::CpModelPresolver::DetectDuplicateConstraints] 
  1.02e-04s  0.00e+00d  [operations_research::sat::CpModelPresolver::DetectDuplicateConstraintsWithDifferentEnforcements] 
  5.59e-05s  1.88e-06d  [operations_research::sat::CpModelPresolver::DetectDominatedLinearConstraints] #relevant_constraints=313 
  4.97e-05s  0.00e+00d  [operations_research::sat::CpModelPresolver::DetectDifferentVariables] 
  5.10e-06s  0.00e+00d  [operations_research::sat::CpModelPresolver::ProcessSetPPC] 
  6.90e-06s  0.00e+00d  [operations_research::sat::CpModelPresolver::FindAlmostIdenticalLinearConstraints] 
  1.80e-05s  0.00e+00d  [operations_research::sat::CpModelPresolver::FindBigAtMostOneAndLinearOverlap] 
  4.44e-05s  1.11e-05d  [operations_research::sat::CpModelPresolver::FindBigVerticalLinearOverlap] 
  4.30e-06s  0.00e+00d  [operations_research::sat::CpModelPresolver::FindBigHorizontalLinearOverlap] 
  9.10e-06s  0.00e+00d  [operations_research::sat::CpModelPresolver::MergeClauses] 
  1.10e-04s  0.00e+00d  [DetectDominanceRelations] 
  5.54e-04s  0.00e+00d  [operations_research::sat::CpModelPresolver::PresolveToFixPoint] #num_loops=1 #num_dual_strengthening=1 
  3.48e-05s  0.00e+00d  [operations_research::sat::CpModelPresolver::ExpandObjective] 

Presolve summary:
  - 347 affine relations were detected.
  - rule 'TODO dual: only one blocking constraint?' was applied 571 times.
  - rule 'TODO dual: only one unspecified blocking constraint?' was applied 460 times.
  - rule 'affine: new relation' was applied 347 times.
  - rule 'intervals: removed unused interval' was applied 4 times.
  - rule 'lin_max: converted to equality' was applied 3 times.
  - rule 'lin_max: removed exprs' was applied 3 times.
  - rule 'lin_max: rewrite with precedences' was applied 92 times.
  - rule 'lin_max: target domain reduced' was applied 96 times.
  - rule 'lin_max: x = max(x, ...)' was applied 1 time.
  - rule 'linear1: x in domain' was applied 11 times.
  - rule 'linear: always true' was applied 118 times.
  - rule 'linear: doubleton free' was applied 2 times.
  - rule 'linear: empty' was applied 3 times.
  - rule 'linear: fixed or dup variables' was applied 11 times.
  - rule 'linear: reduced variable domains' was applied 1'415 times.
  - rule 'linear: remapped using affine relations' was applied 540 times.
  - rule 'linear: variable substitution 0' was applied 1 time.
  - rule 'linear: variable substitution 1' was applied 2 times.
  - rule 'no_overlap: split into disjoint components' was applied 4 times.
  - rule 'presolve: 8 unused variables removed.' was applied 1 time.
  - rule 'presolve: iteration' was applied 2 times.

Presolved optimization model '': (model_fingerprint: 0x8946b70e66152551)
#Variables: 345 (#ints: 92 in objective) (253 primary variables)
  - 222 different domains in [0,18651] with a largest complexity of 1.
#kInterval: 253
#kLinear2: 313
#kNoOverlap: 10 (#intervals: 253)
[Symmetry] Graph for symmetry has 1'174 nodes and 1'385 arcs.
[Symmetry] Symmetry computation done. time: 0.0001096 dtime: 0.00020616

Preloading model.
#Bound   0.01s best:inf   next:[0,2337758] initial_domain
#Model   0.01s var:345/345 constraints:576/576

Starting search at 0.01s with 20 workers.
13 full problem subsolvers: [core, default_lp, fixed, lb_tree_search, max_lp, no_lp, objective_lb_search, objective_shaving_no_lp, probing, pseudo_costs, quick_restart, quick_restart_no_lp, reduced_costs]
7 first solution subsolvers: [fj(2), fj_lin, fs_random, fs_random_no_lp, fs_random_quick_restart, fs_random_quick_restart_no_lp]
17 interleaved subsolvers: [feasibility_pump, graph_arc_lns, graph_cst_lns, graph_dec_lns, graph_var_lns, lb_relax_lns, ls(2), ls_lin, rins/rens, rnd_cst_lns, rnd_var_lns, scheduling_intervals_lns, scheduling_precedences_lns, scheduling_resource_windows_lns, scheduling_time_window_lns, variables_shaving]
3 helper subsolvers: [neighborhood_helper, synchronization_agent, update_gap_integral]

#1       0.03s best:243   next:[0,242]    core
#2       0.05s best:242   next:[0,241]    graph_dec_lns (d=5.00e-01 s=26 t=0.10 p=0.00 stall=0 h=base) [hint]
#3       0.07s best:226   next:[0,225]    graph_arc_lns (d=5.00e-01 s=24 t=0.10 p=0.00 stall=0 h=base)
#Bound   0.11s best:226   next:[1,225]    bool_core (num_cores=1 [size:3 mw:1 d:2] a=91 d=2 fixed=2/316 clauses=3)
#Bound   0.11s best:226   next:[2,225]    bool_core (num_cores=1 [cover] a=91 d=2 fixed=2/321 clauses=5)
#Bound   0.11s best:226   next:[3,225]    bool_core (num_cores=1 [cover] a=91 d=2 fixed=3/326 clauses=9)
#Bound   0.11s best:226   next:[4,225]    bool_core (num_cores=1 [cover] a=91 d=2 fixed=4/331 clauses=15)
#Bound   0.11s best:226   next:[5,225]    bool_core (num_cores=1 [cover] a=91 d=2 fixed=5/336 clauses=23)
#Bound   0.11s best:226   next:[6,225]    bool_core (num_cores=1 [cover] a=91 d=2 fixed=6/341 clauses=33)
#Bound   0.11s best:226   next:[7,225]    bool_core (num_cores=1 [cover] a=91 d=2 fixed=7/346 clauses=45)
#Bound   0.11s best:226   next:[8,225]    bool_core (num_cores=1 [cover] a=91 d=2 fixed=8/351 clauses=59)
#Bound   0.11s best:226   next:[9,225]    bool_core (num_cores=1 [cover] a=91 d=2 fixed=9/356 clauses=75)
#Bound   0.11s best:226   next:[10,225]   bool_core (num_cores=1 [cover] a=91 d=2 fixed=10/361 clauses=93)
#Bound   0.11s best:226   next:[11,225]   bool_core (num_cores=1 [cover] a=91 d=2 fixed=11/366 clauses=113)
#4       0.11s best:199   next:[11,198]   ls_restart_decay(batch:1 lin{mvs:0 evals:82} gen{mvs:49 evals:167} #w_updates:42 #perturb:0)
#5       0.12s best:197   next:[11,196]   ls_restart_perturb(batch:1 lin{mvs:3 evals:8} #w_updates:0 #perturb:0)
#6       0.12s best:18    next:[11,17]    ls_lin_restart_decay_compound_perturb(batch:1 lin{mvs:0 evals:10} gen{mvs:6 evals:3} comp{mvs:6 btracks:0} #w_updates:0 #perturb:0)
#7       0.14s best:13    next:[11,12]    objective_lb_search
#Model   0.14s var:313/345 constraints:537/576 compo:308,1,1,1,1,1
#8       0.15s best:11    next:[]         objective_lb_search
#Done    0.15s objective_lb_search

Task timing                                  n [     min,      max]      avg      dev     time         n [     min,      max]      avg      dev    dtime
                             'core':         1 [137.54ms, 137.54ms] 137.54ms   0.00ns 137.54ms         1 [  4.66ms,   4.66ms]   4.66ms   0.00ns   4.66ms
                       'default_lp':         1 [137.55ms, 137.55ms] 137.55ms   0.00ns 137.55ms         1 [ 13.94ms,  13.94ms]  13.94ms   0.00ns  13.94ms
                 'feasibility_pump':         1 [  3.91ms,   3.91ms]   3.91ms   0.00ns   3.91ms         0 [  0.00ns,   0.00ns]   0.00ns   0.00ns   0.00ns
                            'fixed':         1 [137.38ms, 137.38ms] 137.38ms   0.00ns 137.38ms         1 [ 10.90ms,  10.90ms]  10.90ms   0.00ns  10.90ms
                               'fj':         1 [ 60.29ms,  60.29ms]  60.29ms   0.00ns  60.29ms         1 [ 64.31ms,  64.31ms]  64.31ms   0.00ns  64.31ms
                               'fj':         1 [122.60ms, 122.60ms] 122.60ms   0.00ns 122.60ms         1 [100.29ms, 100.29ms] 100.29ms   0.00ns 100.29ms
                           'fj_lin':         0 [  0.00ns,   0.00ns]   0.00ns   0.00ns   0.00ns         0 [  0.00ns,   0.00ns]   0.00ns   0.00ns   0.00ns
                        'fs_random':         1 [ 13.28ms,  13.28ms]  13.28ms   0.00ns  13.28ms         1 [394.10us, 394.10us] 394.10us   0.00ns 394.10us
                  'fs_random_no_lp':         1 [ 13.65ms,  13.65ms]  13.65ms   0.00ns  13.65ms         1 [586.41us, 586.41us] 586.41us   0.00ns 586.41us
          'fs_random_quick_restart':         1 [ 13.01ms,  13.01ms]  13.01ms   0.00ns  13.01ms         1 [293.81us, 293.81us] 293.81us   0.00ns 293.81us
    'fs_random_quick_restart_no_lp':         1 [ 13.10ms,  13.10ms]  13.10ms   0.00ns  13.10ms         1 [535.90us, 535.90us] 535.90us   0.00ns 535.90us
                    'graph_arc_lns':         1 [ 34.50ms,  34.50ms]  34.50ms   0.00ns  34.50ms         1 [986.09us, 986.09us] 986.09us   0.00ns 986.09us
                    'graph_cst_lns':         1 [ 14.97ms,  14.97ms]  14.97ms   0.00ns  14.97ms         1 [ 83.15us,  83.15us]  83.15us   0.00ns  83.15us
                    'graph_dec_lns':         1 [  7.65ms,   7.65ms]   7.65ms   0.00ns   7.65ms         1 [ 47.57us,  47.57us]  47.57us   0.00ns  47.57us
                    'graph_var_lns':         1 [118.42ms, 118.42ms] 118.42ms   0.00ns 118.42ms         1 [  5.03ms,   5.03ms]   5.03ms   0.00ns   5.03ms
                     'lb_relax_lns':         1 [106.00ms, 106.00ms] 106.00ms   0.00ns 106.00ms         1 [  3.34ms,   3.34ms]   3.34ms   0.00ns   3.34ms
                   'lb_tree_search':         1 [134.79ms, 134.79ms] 134.79ms   0.00ns 134.79ms         0 [  0.00ns,   0.00ns]   0.00ns   0.00ns   0.00ns
                               'ls':         1 [  2.27ms,   2.27ms]   2.27ms   0.00ns   2.27ms         1 [  7.23us,   7.23us]   7.23us   0.00ns   7.23us
                               'ls':         1 [  3.46ms,   3.46ms]   3.46ms   0.00ns   3.46ms         1 [  1.51ms,   1.51ms]   1.51ms   0.00ns   1.51ms
                           'ls_lin':         1 [  2.32ms,   2.32ms]   2.32ms   0.00ns   2.32ms         1 [ 39.54us,  39.54us]  39.54us   0.00ns  39.54us
                           'max_lp':         1 [139.18ms, 139.18ms] 139.18ms   0.00ns 139.18ms         1 [  6.94ms,   6.94ms]   6.94ms   0.00ns   6.94ms
                            'no_lp':         1 [136.87ms, 136.87ms] 136.87ms   0.00ns 136.87ms         1 [ 14.25ms,  14.25ms]  14.25ms   0.00ns  14.25ms
              'objective_lb_search':         1 [131.03ms, 131.03ms] 131.03ms   0.00ns 131.03ms         1 [  8.85ms,   8.85ms]   8.85ms   0.00ns   8.85ms
          'objective_shaving_no_lp':         2 [ 24.51ms,  36.10ms]  30.31ms   5.79ms  60.61ms         2 [ 83.33us, 274.82us] 179.07us  95.75us 358.14us
                          'probing':         1 [134.74ms, 134.74ms] 134.74ms   0.00ns 134.74ms         0 [  0.00ns,   0.00ns]   0.00ns   0.00ns   0.00ns
                     'pseudo_costs':         1 [139.44ms, 139.44ms] 139.44ms   0.00ns 139.44ms         1 [  4.31ms,   4.31ms]   4.31ms   0.00ns   4.31ms
                    'quick_restart':         1 [136.06ms, 136.06ms] 136.06ms   0.00ns 136.06ms         1 [  9.82ms,   9.82ms]   9.82ms   0.00ns   9.82ms
              'quick_restart_no_lp':         1 [132.25ms, 132.25ms] 132.25ms   0.00ns 132.25ms         0 [  0.00ns,   0.00ns]   0.00ns   0.00ns   0.00ns
                    'reduced_costs':         1 [136.22ms, 136.22ms] 136.22ms   0.00ns 136.22ms         0 [  0.00ns,   0.00ns]   0.00ns   0.00ns   0.00ns
                        'rins/rens':         2 [ 68.90us, 102.80us]  85.85us  16.95us 171.70us         0 [  0.00ns,   0.00ns]   0.00ns   0.00ns   0.00ns
                      'rnd_cst_lns':         1 [  6.80ms,   6.80ms]   6.80ms   0.00ns   6.80ms         1 [  4.17us,   4.17us]   4.17us   0.00ns   4.17us
                      'rnd_var_lns':         2 [  8.37ms,   8.76ms]   8.57ms 195.75us  17.14ms         1 [  5.99us,   5.99us]   5.99us   0.00ns   5.99us
         'scheduling_intervals_lns':         1 [ 98.92ms,  98.92ms]  98.92ms   0.00ns  98.92ms         1 [440.05us, 440.05us] 440.05us   0.00ns 440.05us
       'scheduling_precedences_lns':         1 [ 67.91ms,  67.91ms]  67.91ms   0.00ns  67.91ms         1 [325.58us, 325.58us] 325.58us   0.00ns 325.58us
  'scheduling_resource_windows_lns':         1 [ 40.51ms,  40.51ms]  40.51ms   0.00ns  40.51ms         1 [165.98us, 165.98us] 165.98us   0.00ns 165.98us
       'scheduling_time_window_lns':         1 [ 95.14ms,  95.14ms]  95.14ms   0.00ns  95.14ms         1 [877.45us, 877.45us] 877.45us   0.00ns 877.45us
                'variables_shaving':         1 [133.10ms, 133.10ms] 133.10ms   0.00ns 133.10ms         1 [  8.38ms,   8.38ms]   8.38ms   0.00ns   8.38ms

Search stats                        Bools  Conflicts  Branches  Restarts  BoolPropag  IntegerPropag
                           'core':    371         28     2'941       940       1'371         29'483
                     'default_lp':    570        148     1'125       337       3'168        104'214
                          'fixed':    783         18     1'384       265       2'330         81'492
                      'fs_random':     28          0        28         0           0          1'317
                'fs_random_no_lp':    134          0       134         0           0          4'389
        'fs_random_quick_restart':     18          0        18         0           0            840
  'fs_random_quick_restart_no_lp':    120          0       120         0           0          4'042
                 'lb_tree_search':  3'089          0     1'782     1'782           0         13'628
                         'max_lp':    263          6       266         1          11          8'276
                          'no_lp':    623         69     1'636       312       2'254        117'809
            'objective_lb_search':    629         56     1'292       449       2'284         63'174
                        'probing':  3'089          0     1'682     1'682           0         12'722
                   'pseudo_costs':      5          2         8         6           3          3'019
                  'quick_restart':    745         12     1'429       323       2'443         70'899
            'quick_restart_no_lp':    583         37     1'466       293       2'299         85'705
                  'reduced_costs':  3'089          0     1'848     1'848           0         14'145

SAT stats                           ClassicMinim  LitRemoved  LitLearned  LitForgotten  Subsumed  MClauses  MDecisions  MLitTrue  MSubsumed  MLitRemoved  MReused
                           'core':            17         113       1'218             0         0         0           0         0          0            0        0
                     'default_lp':           141         769       1'802             0         0         0           0         0          0            0        0
                          'fixed':             0           0          42             0         0         0           0         0          0            0        0
                      'fs_random':             0           0           0             0         0         0           0         0          0            0        0
                'fs_random_no_lp':             0           0           0             0         0         0           0         0          0            0        0
        'fs_random_quick_restart':             0           0           0             0         0         0           0         0          0            0        0
  'fs_random_quick_restart_no_lp':             0           0           0             0         0         0           0         0          0            0        0
                 'lb_tree_search':             0           0           0             0         0         0           0         0          0            0        0
                         'max_lp':             0           0          18             0         0         0           0         0          0            0        0
                          'no_lp':            58          98       1'652             0         0         0           0         0          0            0        0
            'objective_lb_search':            15          70         604             0         0         0           0         0          0            0        0
                        'probing':             0           0           0             0         0         0           0         0          0            0        0
                   'pseudo_costs':             0           0           2             0         0         0           0         0          0            0        0
                  'quick_restart':            11          83         281             0         0         0           0         0          0            0        0
            'quick_restart_no_lp':            19          63         708             0         0         0           0         0          0            0        0
                  'reduced_costs':             0           0           0             0         0         0           0         0          0            0        0

Lp stats                      Component  Iterations  AddedCuts  OPTIMAL  DUAL_F.  DUAL_U.
               'default_lp':         32         711          0    1'748        0        0
                    'fixed':         32         991          0    2'272        0        0
                'fs_random':         32         215          0      421        0        0
  'fs_random_quick_restart':         32         193          0      365        0        0
           'lb_tree_search':          1           0          0        0        0        0
                   'max_lp':          1         511        189      147        1        0
      'objective_lb_search':         32         781          0    1'402        0        0
                  'probing':         32           0          0        0        0        0
             'pseudo_costs':          1         491        733       18        1        0
            'quick_restart':         32         999          0    1'939        0        0
            'reduced_costs':          1           0          0        0        0        0

Lp dimension                   Final dimension of first component
               'default_lp':       7 rows, 10 columns, 14 entries
                    'fixed':       7 rows, 10 columns, 14 entries
                'fs_random':       6 rows, 10 columns, 12 entries
  'fs_random_quick_restart':       6 rows, 10 columns, 12 entries
           'lb_tree_search':   313 rows, 345 columns, 626 entries
                   'max_lp':   191 rows, 345 columns, 419 entries
      'objective_lb_search':       7 rows, 10 columns, 14 entries
                  'probing':        0 rows, 10 columns, 0 entries
             'pseudo_costs':  301 rows, 345 columns, 1005 entries
            'quick_restart':       7 rows, 10 columns, 14 entries
            'reduced_costs':       0 rows, 345 columns, 0 entries

Lp debug                      CutPropag  CutEqPropag  Adjust  Overflow    Bad  BadScaling
               'default_lp':          0            0       0         0      0           0
                    'fixed':          0            0       0         0      0           0
                'fs_random':          0            0       0         0      0           0
  'fs_random_quick_restart':          0            0       0         0      0           0
           'lb_tree_search':          0            0       0         0      0           0
                   'max_lp':          0            6       0         0  1'115           0
      'objective_lb_search':          0            0       0         0      0           0
                  'probing':          0            0       0         0      0           0
             'pseudo_costs':          0            0       0         0    929           0
            'quick_restart':          0            0       0         0      0           0
            'reduced_costs':          0            0       0         0      0           0

Lp pool                       Constraints  Updates  Simplif  Merged  Shortened  Split  Strenghtened  Cuts/Call
               'default_lp':          313        0        3       0          0      0             0        0/0
                    'fixed':          313        0       43       0         22      0             0        0/0
                'fs_random':          313        0        0       0          0      0             0        0/0
  'fs_random_quick_restart':          313        0        0       0          0      0             0        0/0
           'lb_tree_search':          313        0        0       0          0      0             0        0/0
                   'max_lp':          502      179        0       0          0      0             0    189/272
      'objective_lb_search':          313        0       28       0         25      0             0        0/0
                  'probing':          313        0        0       0          0      0             0        0/0
             'pseudo_costs':        1'029      213    1'570      17         32      0            10  733/1'011
            'quick_restart':          313        0       28       0         25      0             0        0/0
            'reduced_costs':          313        0        0       0          0      0             0        0/0

Lp Cut                                                max_lp  pseudo_costs
                                               CG_K:       -             2
                                               CG_R:       1             4
                                            MIR_1_K:       -             6
                                            MIR_1_R:       1            15
                                            MIR_2_K:       -             1
                                            MIR_2_R:       -             1
                  NoOverlapCompletionTimeExhaustive:       2            18
           NoOverlapCompletionTimeExhaustive_lifted:       6            24
  NoOverlapCompletionTimeExhaustive_lifted_weighted:      24           100
         NoOverlapCompletionTimeExhaustive_weighted:      17            47
                    NoOverlapCompletionTimeQueyrane:      27            92
             NoOverlapCompletionTimeQueyrane_lifted:      52           193
                        NoOverlapDetectedPrecedence:       2            25
                          NoOverlapDisjunctionOnEnd:       -            14
                        NoOverlapDisjunctionOnStart:      54           186
                                        ZERO_HALF_R:       3             5

LNS stats                             Improv/Calls  Closed  Difficulty  TimeLimit
                    'graph_arc_lns':           1/1    100%    7.07e-01       0.10
                    'graph_cst_lns':           1/1    100%    7.07e-01       0.10
                    'graph_dec_lns':           1/1    100%    7.07e-01       0.10
                    'graph_var_lns':           1/1      0%    2.93e-01       0.10
                     'lb_relax_lns':           1/1      0%    2.93e-01       0.50
                        'rins/rens':           0/0      0%    5.00e-01       0.10
                      'rnd_cst_lns':           1/1    100%    7.07e-01       0.10
                      'rnd_var_lns':           1/1    100%    7.07e-01       0.10
         'scheduling_intervals_lns':           0/1      0%    2.93e-01       0.10
       'scheduling_precedences_lns':           1/1      0%    2.93e-01       0.10
  'scheduling_resource_windows_lns':           0/1    100%    7.07e-01       0.10
       'scheduling_time_window_lns':           1/1      0%    2.93e-01       0.10

LS stats                                    Batches  Restarts/Perturbs  LinMoves  GenMoves  CompoundMoves  Bactracks  WeightUpdates  ScoreComputed
                             'fj_restart':        1                  1        58     1'035              0          0              9        205'239
  'fj_restart_decay_compound_perturb_obj':        1                  1         0     1'633            989        322              3        126'638
  'ls_lin_restart_decay_compound_perturb':        1                  1         0         6              6          0              0             88
                       'ls_restart_decay':        1                  1         0        49              0          0             42          2'789
                     'ls_restart_perturb':        1                  1         3         0              0          0              0             18

Solutions (8)                               Num   Rank
                                   'core':    1  [1,1]
                          'graph_arc_lns':    1  [3,3]
                          'graph_dec_lns':    1  [2,2]
  'ls_lin_restart_decay_compound_perturb':    1  [6,6]
                       'ls_restart_decay':    1  [4,4]
                     'ls_restart_perturb':    1  [5,5]
                    'objective_lb_search':    2  [7,8]

Objective bounds     Num
       'bool_core':   11
  'initial_domain':    1

Solution repositories    Added  Queried  Synchro
  'feasible solutions':     32       32       21
   'fj solution hints':      0        0        0
        'lp solutions':      2        2        1
                'pump':      0        0

Improving bounds shared    Num  Sym
            'default_lp':   10    0
                 'fixed':  923    0
                 'no_lp':  346    0
   'objective_lb_search':  345    0
         'quick_restart':  242    0
   'quick_restart_no_lp':  913    0

CpSolverResponse summary:
status: OPTIMAL
objective: 11
best_bound: 11
integers: 346
booleans: 134
conflicts: 0
branches: 134
propagations: 0
integer_propagations: 4389
restarts: 0
lp_iterations: 0
walltime: 0.175111
usertime: 0.175111
deterministic_time: 0.261729
gap_integral: 0.592408
solution_fingerprint: 0xf619e71ecc6c8fb0

